p cnf 49 595
1 2 3 4 5 6 7 0
8 9 10 11 12 13 14 0
15 16 17 18 19 20 21 0
22 23 24 25 26 27 28 0
29 30 31 32 33 34 35 0
36 37 38 39 40 41 42 0
43 44 45 46 47 48 49 0
-1 -2 0
-1 -3 0
-1 -4 0
-1 -5 0
-1 -6 0
-1 -7 0
-2 -3 0
-2 -4 0
-2 -5 0
-2 -6 0
-2 -7 0
-3 -4 0
-3 -5 0
-3 -6 0
-3 -7 0
-4 -5 0
-4 -6 0
-4 -7 0
-5 -6 0
-5 -7 0
-6 -7 0
-8 -9 0
-8 -10 0
-8 -11 0
-8 -12 0
-8 -13 0
-8 -14 0
-9 -10 0
-9 -11 0
-9 -12 0
-9 -13 0
-9 -14 0
-10 -11 0
-10 -12 0
-10 -13 0
-10 -14 0
-11 -12 0
-11 -13 0
-11 -14 0
-12 -13 0
-12 -14 0
-13 -14 0
-15 -16 0
-15 -17 0
-15 -18 0
-15 -19 0
-15 -20 0
-15 -21 0
-16 -17 0
-16 -18 0
-16 -19 0
-16 -20 0
-16 -21 0
-17 -18 0
-17 -19 0
-17 -20 0
-17 -21 0
-18 -19 0
-18 -20 0
-18 -21 0
-19 -20 0
-19 -21 0
-20 -21 0
-22 -23 0
-22 -24 0
-22 -25 0
-22 -26 0
-22 -27 0
-22 -28 0
-23 -24 0
-23 -25 0
-23 -26 0
-23 -27 0
-23 -28 0
-24 -25 0
-24 -26 0
-24 -27 0
-24 -28 0
-25 -26 0
-25 -27 0
-25 -28 0
-26 -27 0
-26 -28 0
-27 -28 0
-29 -30 0
-29 -31 0
-29 -32 0
-29 -33 0
-29 -34 0
-29 -35 0
-30 -31 0
-30 -32 0
-30 -33 0
-30 -34 0
-30 -35 0
-31 -32 0
-31 -33 0
-31 -34 0
-31 -35 0
-32 -33 0
-32 -34 0
-32 -35 0
-33 -34 0
-33 -35 0
-34 -35 0
-36 -37 0
-36 -38 0
-36 -39 0
-36 -40 0
-36 -41 0
-36 -42 0
-37 -38 0
-37 -39 0
-37 -40 0
-37 -41 0
-37 -42 0
-38 -39 0
-38 -40 0
-38 -41 0
-38 -42 0
-39 -40 0
-39 -41 0
-39 -42 0
-40 -41 0
-40 -42 0
-41 -42 0
-43 -44 0
-43 -45 0
-43 -46 0
-43 -47 0
-43 -48 0
-43 -49 0
-44 -45 0
-44 -46 0
-44 -47 0
-44 -48 0
-44 -49 0
-45 -46 0
-45 -47 0
-45 -48 0
-45 -49 0
-46 -47 0
-46 -48 0
-46 -49 0
-47 -48 0
-47 -49 0
-48 -49 0
-1 -8 0
-1 -8 0
-1 -10 0
-3 -8 0
-1 -11 0
-4 -8 0
-1 -12 0
-5 -8 0
-1 -13 0
-6 -8 0
-2 -9 0
-2 -9 0
-2 -11 0
-4 -9 0
-2 -12 0
-5 -9 0
-2 -13 0
-6 -9 0
-2 -14 0
-7 -9 0
-3 -10 0
-3 -10 0
-3 -12 0
-5 -10 0
-3 -13 0
-6 -10 0
-3 -14 0
-7 -10 0
-4 -11 0
-4 -11 0
-4 -13 0
-6 -11 0
-4 -14 0
-7 -11 0
-5 -12 0
-5 -12 0
-5 -14 0
-7 -12 0
-6 -13 0
-6 -13 0
-7 -14 0
-7 -14 0
-8 -15 0
-8 -15 0
-8 -17 0
-10 -15 0
-8 -18 0
-11 -15 0
-8 -19 0
-12 -15 0
-8 -20 0
-13 -15 0
-9 -16 0
-9 -16 0
-9 -18 0
-11 -16 0
-9 -19 0
-12 -16 0
-9 -20 0
-13 -16 0
-9 -21 0
-14 -16 0
-10 -17 0
-10 -17 0
-10 -19 0
-12 -17 0
-10 -20 0
-13 -17 0
-10 -21 0
-14 -17 0
-11 -18 0
-11 -18 0
-11 -20 0
-13 -18 0
-11 -21 0
-14 -18 0
-12 -19 0
-12 -19 0
-12 -21 0
-14 -19 0
-13 -20 0
-13 -20 0
-14 -21 0
-14 -21 0
-15 -22 0
-15 -22 0
-15 -24 0
-17 -22 0
-15 -25 0
-18 -22 0
-15 -26 0
-19 -22 0
-15 -27 0
-20 -22 0
-16 -23 0
-16 -23 0
-16 -25 0
-18 -23 0
-16 -26 0
-19 -23 0
-16 -27 0
-20 -23 0
-16 -28 0
-21 -23 0
-17 -24 0
-17 -24 0
-17 -26 0
-19 -24 0
-17 -27 0
-20 -24 0
-17 -28 0
-21 -24 0
-18 -25 0
-18 -25 0
-18 -27 0
-20 -25 0
-18 -28 0
-21 -25 0
-19 -26 0
-19 -26 0
-19 -28 0
-21 -26 0
-20 -27 0
-20 -27 0
-21 -28 0
-21 -28 0
-22 -29 0
-22 -29 0
-22 -31 0
-24 -29 0
-22 -32 0
-25 -29 0
-22 -33 0
-26 -29 0
-22 -34 0
-27 -29 0
-23 -30 0
-23 -30 0
-23 -32 0
-25 -30 0
-23 -33 0
-26 -30 0
-23 -34 0
-27 -30 0
-23 -35 0
-28 -30 0
-24 -31 0
-24 -31 0
-24 -33 0
-26 -31 0
-24 -34 0
-27 -31 0
-24 -35 0
-28 -31 0
-25 -32 0
-25 -32 0
-25 -34 0
-27 -32 0
-25 -35 0
-28 -32 0
-26 -33 0
-26 -33 0
-26 -35 0
-28 -33 0
-27 -34 0
-27 -34 0
-28 -35 0
-28 -35 0
-29 -36 0
-29 -36 0
-29 -38 0
-31 -36 0
-29 -39 0
-32 -36 0
-29 -40 0
-33 -36 0
-29 -41 0
-34 -36 0
-30 -37 0
-30 -37 0
-30 -39 0
-32 -37 0
-30 -40 0
-33 -37 0
-30 -41 0
-34 -37 0
-30 -42 0
-35 -37 0
-31 -38 0
-31 -38 0
-31 -40 0
-33 -38 0
-31 -41 0
-34 -38 0
-31 -42 0
-35 -38 0
-32 -39 0
-32 -39 0
-32 -41 0
-34 -39 0
-32 -42 0
-35 -39 0
-33 -40 0
-33 -40 0
-33 -42 0
-35 -40 0
-34 -41 0
-34 -41 0
-35 -42 0
-35 -42 0
-36 -43 0
-36 -43 0
-36 -45 0
-38 -43 0
-36 -46 0
-39 -43 0
-36 -47 0
-40 -43 0
-36 -48 0
-41 -43 0
-37 -44 0
-37 -44 0
-37 -46 0
-39 -44 0
-37 -47 0
-40 -44 0
-37 -48 0
-41 -44 0
-37 -49 0
-42 -44 0
-38 -45 0
-38 -45 0
-38 -47 0
-40 -45 0
-38 -48 0
-41 -45 0
-38 -49 0
-42 -45 0
-39 -46 0
-39 -46 0
-39 -48 0
-41 -46 0
-39 -49 0
-42 -46 0
-40 -47 0
-40 -47 0
-40 -49 0
-42 -47 0
-41 -48 0
-41 -48 0
-42 -49 0
-42 -49 0
-1 -43 0
-1 -43 0
-1 -45 0
-3 -43 0
-1 -46 0
-4 -43 0
-1 -47 0
-5 -43 0
-1 -48 0
-6 -43 0
-2 -44 0
-2 -44 0
-2 -46 0
-4 -44 0
-2 -47 0
-5 -44 0
-2 -48 0
-6 -44 0
-2 -49 0
-7 -44 0
-3 -45 0
-3 -45 0
-3 -47 0
-5 -45 0
-3 -48 0
-6 -45 0
-3 -49 0
-7 -45 0
-4 -46 0
-4 -46 0
-4 -48 0
-6 -46 0
-4 -49 0
-7 -46 0
-5 -47 0
-5 -47 0
-5 -49 0
-7 -47 0
-6 -48 0
-6 -48 0
-7 -49 0
-7 -49 0
-1 -8 0
-1 -15 0
-1 -22 0
-1 -29 0
-1 -36 0
-1 -43 0
-8 -15 0
-8 -22 0
-8 -29 0
-8 -36 0
-8 -43 0
-15 -22 0
-15 -29 0
-15 -36 0
-15 -43 0
-22 -29 0
-22 -36 0
-22 -43 0
-29 -36 0
-29 -43 0
-36 -43 0
-2 -9 0
-2 -16 0
-2 -23 0
-2 -30 0
-2 -37 0
-2 -44 0
-9 -16 0
-9 -23 0
-9 -30 0
-9 -37 0
-9 -44 0
-16 -23 0
-16 -30 0
-16 -37 0
-16 -44 0
-23 -30 0
-23 -37 0
-23 -44 0
-30 -37 0
-30 -44 0
-37 -44 0
-3 -10 0
-3 -17 0
-3 -24 0
-3 -31 0
-3 -38 0
-3 -45 0
-10 -17 0
-10 -24 0
-10 -31 0
-10 -38 0
-10 -45 0
-17 -24 0
-17 -31 0
-17 -38 0
-17 -45 0
-24 -31 0
-24 -38 0
-24 -45 0
-31 -38 0
-31 -45 0
-38 -45 0
-4 -11 0
-4 -18 0
-4 -25 0
-4 -32 0
-4 -39 0
-4 -46 0
-11 -18 0
-11 -25 0
-11 -32 0
-11 -39 0
-11 -46 0
-18 -25 0
-18 -32 0
-18 -39 0
-18 -46 0
-25 -32 0
-25 -39 0
-25 -46 0
-32 -39 0
-32 -46 0
-39 -46 0
-5 -12 0
-5 -19 0
-5 -26 0
-5 -33 0
-5 -40 0
-5 -47 0
-12 -19 0
-12 -26 0
-12 -33 0
-12 -40 0
-12 -47 0
-19 -26 0
-19 -33 0
-19 -40 0
-19 -47 0
-26 -33 0
-26 -40 0
-26 -47 0
-33 -40 0
-33 -47 0
-40 -47 0
-6 -13 0
-6 -20 0
-6 -27 0
-6 -34 0
-6 -41 0
-6 -48 0
-13 -20 0
-13 -27 0
-13 -34 0
-13 -41 0
-13 -48 0
-20 -27 0
-20 -34 0
-20 -41 0
-20 -48 0
-27 -34 0
-27 -41 0
-27 -48 0
-34 -41 0
-34 -48 0
-41 -48 0
-7 -14 0
-7 -21 0
-7 -28 0
-7 -35 0
-7 -42 0
-7 -49 0
-14 -21 0
-14 -28 0
-14 -35 0
-14 -42 0
-14 -49 0
-21 -28 0
-21 -35 0
-21 -42 0
-21 -49 0
-28 -35 0
-28 -42 0
-28 -49 0
-35 -42 0
-35 -49 0
-42 -49 0
